Route #1: 17 51 6 62 1 43 41 42 64 22 74 2 68
Route #2: 28 61 21 69 71 60 70 20 37 36 47 48 30
Route #3: 33 73 63 23 56 24 49 16 3 44 40 12
Route #4: 26 58 10 31 25 55 18 50 32 9 39 72
Route #5: 38 65 66 11 59 14 53 35 7
Route #6: 34 52 27 45 29 5 15 57 13 54 19 8 46
Route #7: 67 4 75
Cost 717